Using license file /home/anup/gurobi.lic
Academic license - for non-commercial use only
Model update took: 5.602836608886719e-05 seconds
Warning: variables 117 and 138 have the same name "rows_tot_cpu_1"
Warning: constraint name "accuracy_(1, sk_1)[0]" has a space
Warning: general constraint 0 and general constraint 11 have the same name "mem_access_time_cpu_1"
Warning: to let Gurobi read it back, use rlp format
Gurobi Optimizer version 9.0.0 build v9.0.0rc2 (linux64)
Optimize a model with 171 rows, 164 columns and 422 nonzeros
Model fingerprint: 0xeef1fcf4
Model has 23 general constraints
Variable types: 118 continuous, 46 integer (39 binary)
Coefficient statistics:
  Matrix range     [1e-04, 5e+03]
  Objective range  [1e+00, 1e+00]
  Bounds range     [1e+00, 7e+00]
  RHS range        [1e+00, 3e+04]

---------------------------------------------------------------------------
Multi-objectives: starting optimization with 2 objectives ... 
---------------------------------------------------------------------------

Multi-objectives: applying initial presolve ...
---------------------------------------------------------------------------

Presolve added 32 rows and 5443 columns
Presolve time: 0.02s
Presolved: 203 rows and 5607 columns
---------------------------------------------------------------------------

Multi-objectives: optimize objective 1 (ns) ...
---------------------------------------------------------------------------

Presolve removed 51 rows and 52 columns
Presolve time: 0.02s
Presolved: 152 rows, 5555 columns, 16642 nonzeros
Presolved model has 27 SOS constraint(s)
Variable types: 5503 continuous, 52 integer (46 binary)

Root relaxation: objective 1.022770e+01, 94 iterations, 0.00 seconds

    Nodes    |    Current Node    |     Objective Bounds      |     Work
 Expl Unexpl |  Obj  Depth IntInf | Incumbent    BestBd   Gap | It/Node Time

     0     0   10.70443    0   10          -   10.70443      -     -    0s
     0     0   10.70443    0   10          -   10.70443      -     -    0s
     0     2   10.70443    0   10          -   10.70443      -     -    0s
 16908  2328   11.43925   88    3          -   11.43925      -   7.0    5s
*43115  4182             105      53.7418250   11.43925  78.7%   5.9    9s
 45149  4065   11.43925   68    9   53.74183   11.43925  78.7%   6.0   10s
H45300  3935                      46.6883970   11.43925  75.5%   6.0   10s
H45878  3942                      45.9999550   11.43925  75.1%   6.0   10s
H46778  3992                      44.9999560   11.43925  74.6%   6.0   11s
H47987  4159                      44.5492632   11.43925  74.3%   6.1   11s
H48488  4313                      44.5492573   11.43925  74.3%   6.1   11s
H49572  4377                      42.5057698   11.43925  73.1%   6.2   12s
H50345  4516                      42.5057490   11.43925  73.1%   6.3   12s
H54991  5157                      42.0028291   11.43925  72.8%   6.7   14s
*58788  5557              96      41.7542731   11.43925  72.6%   7.0   14s
 58885  5683 infeasible   60        41.75427   11.43925  72.6%   7.0   15s
H69042  6760                      41.5057742   11.43925  72.4%   7.6   16s
H79870  7339                      35.0023632   11.43925  67.3%   8.0   18s
 85708  8017 infeasible   28        35.00236   11.43925  67.3%   8.1   20s
*86139  7911             100      34.0022967   11.43925  66.4%   8.2   20s
 105452 10428   11.53215   32   10   34.00230   11.43925  66.4%   8.7   25s
H107022 10431                      33.7541003   11.43925  66.1%   8.7   25s
H107226  8958                      31.0020970   11.43925  63.1%   8.7   25s
H120229  8543                      28.5757180   11.43925  60.0%   9.0   28s
 125190  7055   27.99997   67    9   28.57572   11.43925  60.0%   9.3   30s
 148757  2368 infeasible   70        28.57572   11.43925  60.0%   9.5   35s
 179763  6895   11.43925   73    7   28.57572   11.43925  60.0%   9.5   40s
 214100  9946   12.99999   92    9   28.57572   11.43925  60.0%   9.4   45s
*234792 11332             132      28.5062831   11.43925  59.9%   9.4   47s
 249354 12603 infeasible   89        28.50628   11.43925  59.9%   9.5   50s
H252382 12824                      28.2540955   11.43925  59.5%   9.5   50s
*266924 14168             139      28.0018974   11.43925  59.1%   9.4   52s
 283090 15554 infeasible   74        28.00190   11.43925  59.1%   9.3   55s
 305541 17194 infeasible   83        28.00190   11.43925  59.1%   9.3   60s
 331172 19192   11.43925   77    6   28.00190   11.43925  59.1%   9.3   65s
H338986 18623                      27.9872239   11.43925  59.1%   9.2   66s
H338988 18614                      27.8673768   11.43925  59.0%   9.2   66s
H354398 19288                      27.8031200   11.43925  58.9%   9.2   68s
H356484 19293                      27.7541081   11.43925  58.8%   9.2   69s
 360662 19697   11.43925   94    6   27.75411   11.43925  58.8%   9.2   70s
H381596 20751                      27.0018308   11.43925  57.6%   9.2   73s
 390595 21479 infeasible   87        27.00183   11.43925  57.6%   9.2   75s
H401846 21984                      26.9999740   11.43925  57.6%   9.1   76s
H414345 22067                      26.5064810   11.43925  56.8%   9.0   78s
H421549 21981                      25.5065995   11.43925  55.2%   9.0   79s
H421552 21690                      25.0016977   11.43925  54.2%   9.0   79s
 421693 21737   11.43925   70    9   25.00170   11.43925  54.2%   9.0   80s
 461190 23218   11.43925   71    7   25.00170   11.43925  54.2%   8.9   85s
*480236 23576             133      24.7534857   11.43925  53.8%   8.9   87s
*480432 22772             125      23.8353074   11.43925  52.0%   8.9   87s
*481660 22514             111      23.5047331   11.43925  51.3%   8.9   87s
*483566 20747             129      21.5072455   11.43925  46.8%   8.9   87s
 499294 21534 infeasible   80        21.50725   11.43925  46.8%   8.9   90s
 537966 22986   11.51164   64    9   21.50725   11.43925  46.8%   9.0   95s
 573261 21522   12.00047   88    9   21.50725   11.99999  44.2%   9.0  100s
*587828 19701             127      21.0007714   12.44660  40.7%   9.0  102s
*589006 18437              96      19.5058126   12.44660  36.2%   9.0  102s
*589464 18035              99      18.8369853   12.44660  33.9%   9.0  102s
*589713 17871              96      18.5396411   12.44660  32.9%   9.0  102s
*593096 18348              90      18.5396347   12.44660  32.9%   9.1  102s
 607300 20385 infeasible   74        18.53963   12.44660  32.9%   9.2  105s
H619283 20730                      18.3401827   12.44660  32.1%   9.2  106s
*623108 19477             114      17.8605747   12.44660  30.3%   9.2  107s
 637217 15802   12.44660   68    6   17.86057   12.44660  30.3%   9.2  110s
*654567  9265             121      17.5083086   12.44660  28.9%   9.2  112s
 678786  3461   12.44660   58   12   17.50831   12.44660  28.9%   9.2  115s
 717767  4377   12.44660   72    7   17.50831   12.44660  28.9%   9.3  120s
 759643  4520 infeasible   74        17.50831   12.44660  28.9%   9.3  125s
*779284  2928             116      14.3407620   12.49562  12.9%   9.3  127s
H792580  3586                      14.3407548   12.50989  12.8%   9.3  129s
H792864  2363                      14.0005204   12.50989  10.6%   9.3  129s
 795659  2326   12.50989   58   10   14.00052   12.50989  10.6%   9.3  130s
*816347  2113             111      13.6753158   12.50989  8.52%   9.2  133s
 830704  2239 infeasible   80        13.67532   12.50989  8.52%   9.2  135s
 870628  2279 infeasible   81        13.67532   12.50989  8.52%   9.1  140s
H884411  2533                      13.6753142   12.50989  8.52%   9.1  142s
 907448  2529   12.50989   71   12   13.67531   12.50989  8.52%   9.0  145s
 946861  3544   12.50989   78    8   13.67531   12.50989  8.52%   8.9  150s
 982147  3494 infeasible   76        13.67531   12.50989  8.52%   8.9  155s
H1009278  3223                      13.6745645   12.50989  8.52%   8.9  158s
 1023360  3210 infeasible   79        13.67456   12.50989  8.52%   8.9  160s
*1028234  1675             129      12.9999880   12.50989  3.77%   8.8  160s
*1028571  1331             123      12.6759277   12.50989  1.31%   8.8  160s
*1028799   636             114      12.5098915   12.50989  0.00%   8.8  160s

Explored 1030057 nodes (9129424 simplex iterations) in 160.97 seconds
Thread count was 8 (of 8 available processors)

Solution count 10: 12.5099 12.6759 13 ... 17.5083

Optimal solution found (tolerance 1.00e-04)
Best objective 1.250989149611e+01, best bound 1.250989149611e+01, gap 0.0000%
---------------------------------------------------------------------------

Multi-objectives: optimize objective 2 (res) ...
---------------------------------------------------------------------------


Loaded user MIP start with objective 152.588

Presolve removed 51 rows and 57 columns
Presolve time: 0.04s
Presolved: 153 rows, 5550 columns, 16655 nonzeros
Presolved model has 20 SOS constraint(s)
Variable types: 5499 continuous, 51 integer (44 binary)

Root simplex log...

Iteration    Objective       Primal Inf.    Dual Inf.      Time
       0    4.0007328e+01   3.579748e+02   0.000000e+00    161s
     104    7.2559454e+01   0.000000e+00   0.000000e+00    161s

Root relaxation: objective 7.255945e+01, 104 iterations, 0.01 seconds

    Nodes    |    Current Node    |     Objective Bounds      |     Work
 Expl Unexpl |  Obj  Depth IntInf | Incumbent    BestBd   Gap | It/Node Time

     0     0   73.65152    0   19  152.58811   73.65152  51.7%     -  161s
     0     0   82.60921    0   18  152.58811   82.60921  45.9%     -  161s
     0     0   82.60921    0   18  152.58811   82.60921  45.9%     -  161s
     0     2   82.60921    0   18  152.58811   82.60921  45.9%     -  161s
H   70    24                     148.8381144   82.75073  44.4%  71.3  162s
  2125   807   87.02870   43    0  148.83811   85.59826  42.5%  13.1  165s
H 7380  1391                     138.8381144   85.59826  38.3%  17.0  169s
  8736  1696   96.39267  150    9  138.83811   85.59826  38.3%  17.4  170s
H26475  4488                     138.7054430   85.59826  38.3%  21.1  174s
 26722  4628 infeasible  155       138.70544   85.59826  38.3%  21.0  175s
*45239  7078             180     118.1313327   85.59826  27.5%  18.9  178s
H47347  7361                     118.0871256   85.59826  27.5%  18.8  179s
 47432  7466   85.59826  144    8  118.08713   85.59826  27.5%  18.8  180s
 72818 11095  114.94498  163    6  118.08713   85.59826  27.5%  17.6  185s
H93262 15319                     117.8218006   85.59826  27.3%  16.6  188s
 98553 16705   96.58883  142   13  117.82180   85.64896  27.3%  16.3  190s
 132163 21904  112.60921  134   10  117.82180   92.60921  21.4%  15.0  195s
 162976 24703   93.54916  131   12  117.82180   93.54916  20.6%  15.4  200s
 189031 24094  104.48911  142   13  117.82180   95.05944  19.3%  15.8  205s
*189599 24071             183     117.7575798   95.08893  19.3%  15.8  205s
*189601 24068             184     117.7498832   95.08893  19.2%  15.8  205s
 218344 20942 infeasible  156       117.74988   98.41619  16.4%  15.9  210s
*235162 19649             193     117.0287048  103.54916  11.5%  16.0  213s
 242260 19110  104.13911  136   18  117.02870  104.01914  11.1%  16.0  215s
 270761 15802  105.89918  149   14  117.02870  105.86886  9.54%  15.9  220s
H275180  1811                     107.7185764  106.33883  1.28%  15.9  220s

Explored 281909 nodes (4448967 simplex iterations) in 222.19 seconds
Thread count was 8 (of 8 available processors)

Solution count 10: 107.719 117.029 117.75 ... 148.838

Optimal solution found (tolerance 1.00e-04)
Best objective 1.077185764313e+02, best bound 1.077185764313e+02, gap 0.0000%

---------------------------------------------------------------------------
Multi-objectives: solved in 222.19 seconds, solution count 7

Model optimize took: 222.19324684143066 seconds
frac[0,0] 0
frac[0,1] 0
frac[0,2] 0
frac[0,3] 0
frac[0,4] 1
frac[0,5] 0
frac[0,6] 1
frac[0,7] 0
frac[0,8] 0
frac[0,9] 0
frac[0,10] 0
frac[0,11] 0
frac[0,12] 0
frac[1,0] 0
frac[1,1] 0
frac[1,2] 0
frac[1,3] 0
frac[1,4] 0
frac[1,5] 1
frac[1,6] 0
frac[1,7] 1
frac[1,8] 0
frac[1,9] 0
frac[1,10] 0
frac[1,11] 0
frac[1,12] 0
frac[2,0] 1
frac[2,1] 1
frac[2,2] 1
frac[2,3] 1
frac[2,4] 0
frac[2,5] 0
frac[2,6] 0
frac[2,7] 0
frac[2,8] 1
frac[2,9] 1
frac[2,10] 1
frac[2,11] 1
frac[2,12] 1
mem[0,0] -1.27329e-10
mem[0,1] 0
mem[0,2] 0
mem[0,3] 0
mem[0,4] 5309.14
mem[0,5] 0
mem[0,6] 5309.14
mem[0,7] 0
mem[0,8] 0
mem[0,9] 0
mem[0,10] 0
mem[0,11] 0
mem[0,12] 0
mem[1,0] -7.27596e-12
mem[1,1] 0
mem[1,2] 0
mem[1,3] 0
mem[1,4] 0
mem[1,5] 5309.14
mem[1,6] 0
mem[1,7] 5309.14
mem[1,8] 0
mem[1,9] 0
mem[1,10] 0
mem[1,11] 0
mem[1,12] 0
mem[2,0] 21.2383
mem[2,1] 21.2383
mem[2,2] 21.2383
mem[2,3] 21.2383
mem[2,4] 0
mem[2,5] 0
mem[2,6] 0
mem[2,7] 0
mem[2,8] 10.6211
mem[2,9] 10.6211
mem[2,10] 10.6211
mem[2,11] 10.6211
mem[2,12] 10.6211
rows[0,0] -0
rows[0,1] -0
rows[0,2] -0
rows[0,3] -0
rows[0,4] 1
rows[0,5] -0
rows[0,6] 1
rows[0,7] -0
rows[0,8] -0
rows[0,9] -0
rows[0,10] -0
rows[0,11] -0
rows[0,12] -0
rows[1,0] -0
rows[1,1] -0
rows[1,2] -0
rows[1,3] -0
rows[1,4] -0
rows[1,5] 1
rows[1,6] -0
rows[1,7] 1
rows[1,8] -0
rows[1,9] -0
rows[1,10] -0
rows[1,11] -0
rows[1,12] -0
rows[2,0] 1
rows[2,1] 1
rows[2,2] 1
rows[2,3] 1
rows[2,4] -0
rows[2,5] -0
rows[2,6] -0
rows[2,7] -0
rows[2,8] 1
rows[2,9] 1
rows[2,10] 1
rows[2,11] 1
rows[2,12] 1
rows_tot_cpu_1 2
mem_tot_cpu_1 10618.3
m_access_time_cpu_1 10.2815
ns_single_cpu_1 28
pdt_m_rows_cpu_1 20.5485
log_m_access_time_cpu_1 3.36064
log_rows_tot_cpu_1 0.999903
log_pdt_m_rows_cpu_1 4.36054
cores_sketch_cpu_1 2
cores_dpdk_cpu_1 3
ns_sketch_cpu_1 14.3878
ns_dpdk_cpu_1 14.2925
ns_cpu_1 14.3878
pdt_nsk_c_cpu_1 28
log_ns_sketch_cpu_1 3.80745
log_cores_sketch_cpu_1 0.999903
log_pdt_nsk_c_cpu_1 4.80735
pdt_nsc_dpdk_cpu_1 42.8571
log_ns_dpdk_cpu_1 3.83647
log_cores_dpdk_cpu_1 1.58491
log_pdt_nsc_dpdk_cpu_1 5.42138
rows_tot_cpu_1 2
mem_tot_cpu_1 10618.3
m_access_time_cpu_1 10.2815
ns_single_cpu_1 28
pdt_m_rows_cpu_1 20.5485
log_m_access_time_cpu_1 3.36064
log_rows_tot_cpu_1 0.999903
log_pdt_m_rows_cpu_1 4.36054
cores_sketch_cpu_1 2
cores_dpdk_cpu_1 3
ns_sketch_cpu_1 14.2925
ns_dpdk_cpu_1 14.2925
ns_cpu_1 14.2925
pdt_nsk_c_cpu_1 28
log_ns_sketch_cpu_1 3.80745
log_cores_sketch_cpu_1 0.999903
log_pdt_nsk_c_cpu_1 4.80735
pdt_nsc_dpdk_cpu_1 42.8571
log_ns_dpdk_cpu_1 3.83647
log_cores_dpdk_cpu_1 1.58491
log_pdt_nsc_dpdk_cpu_1 5.42138
rows_tot_p4_1 9
mem_tot_p4_1 138.059
ns_p4_1 6.75676
ns 14.3878
res_overall 107.719
-----------------------------

Throughput: 69.50326226525873 Mpps, ns per packet: 14.387813858053264
Resources: 107.7185764312744
Sketch 1 (cm: eps0: 0.0005, del0: 0.02, mim_mem: 21.23828125)
Row: 1
0.0    0.0    1.0    

Row: 2
0.0    0.0    1.0    

Row: 3
0.0    0.0    1.0    

Row: 4
0.0    0.0    1.0    

Sketch 2 (cm: eps0: 2.0000000000000003e-06, del0: 0.02, mim_mem: 5309.14453125)
Row: 1
1.0    0.0    0.0    

Row: 2
0.0    1.0    0.0    

Row: 3
1.0    0.0    0.0    

Row: 4
0.0    1.0    0.0    

Sketch 3 (cm: eps0: 0.001, del0: 0.01, mim_mem: 10.62109375)
Row: 1
0.0    0.0    1.0    

Row: 2
0.0    0.0    1.0    

Row: 3
0.0    0.0    1.0    

Row: 4
0.0    0.0    1.0    

Row: 5
0.0    0.0    1.0    

Device cpu_1:
cores_sketch: 2.0, cores_dpdk: 3.0
Rows total: 2.0
Mem total: 10618.289062499873

Device cpu_1:
cores_sketch: 2.0, cores_dpdk: 3.0
Rows total: 2.0
Mem total: 10618.289062499993

Device p4_1:
Rows total: 9.0
Mem total: 138.05859375

